WARNING: for repeatability, setting FPU to use double precision
============================[ Problem Statistics ]=============================
|                                                                             |
|  Number of variables:      10735052                                         |
|  Number of clauses:        43043255                                         |
|  Parse time:                  10.00 s                                       |
|                                                                             |
c ============================[ Search Statistics ]==============================
c | Conflicts |          ORIGINAL         |          LEARNT          | Progress |
c |           |    Vars  Clauses Literals |    Limit  Clauses Lit/Cl |          |
c ===============================================================================
c Switched to VSIDS.
c Switched to LRB.
c Switched to VSIDS.
c Switched to LRB.
c Switched to VSIDS.
c Switched to LRB.
c Switched to VSIDS.
c Switched to LRB.
c Switched to VSIDS.
c Switched to LRB.
c Switched to VSIDS.
c Switched to LRB.
c Switched to VSIDS.
c Switched to LRB.
c Switched to VSIDS.
c Switched to LRB.
c Switched to VSIDS.
c Switched to LRB.
c Switched to VSIDS.
c Switched to LRB.
c Switched to VSIDS.
c Switched to LRB.
c Switched to VSIDS.
c Switched to LRB.
c Switched to VSIDS.
c Switched to LRB.
c Switched to VSIDS.
c Switched to LRB.
c ===============================================================================
restarts                  : 112
conflicts                 : 22336          (7 /sec)
decisions                 : 49336522       (0.00 % random) (14494 /sec)
propagations              : 9332715364     (2741778 /sec)
conflict literals         : 1144196        (2.80 % deleted)

conflicts w/ DIP found    : 18305          (81.95 % of conflicts)
conflicts w/ dangerous DIP: 0              (0.00 % of conflicts)
conflicts w/ DIP-learning : 2              (0.01 % of conflicts)
decisions on ext vars     : 60             (0.00 % of decisions)
total ext vars            : 1           
tried delete ext vars     : 1           
deleted ext vars          : 1           
max ext vars              : 1           

Memory used               : 6141.00 MB
CPU time                  : 3403.89 s
DIP computation time      : 0.366193 s (0.01 % of total time)
ER_sel time               : 0.035914 s
ER_add time               : 0 s
ER_delC time              : 0 s
ER_delV time              : 0.063863 s
ER_sub time               : 0.079425 s
ER_stat time              : 0 s

INDETERMINATE
